set Citta := Latina Velletri Anzio Aprilia;

param: K d A :=
    Latina   1400 1000 2
    Velletri 1300  800 4
    Anzio    1000  800 3
    Aprilia   900  700 4;

param c: Latina Velletri Anzio Aprilia :=
    Latina    1    10    10    10
    Velletri 10     1    12     7
    Anzio    10    12     1     7
    Aprilia  10     7     7     1;
